512 527 528 529 236 235 234 232 233 231 230 229 228 227 189 225 226 190 191 192 193 219 218 220 221 222 224 223 217 216 215 214 213 212 211 210 209 208 207 206 205 197 196 195 194 184 183 185 186 188 187 538 537 539 540 176 177 178 182 179 181 180 169 168 162 163 167 166 198 199 200 201 202 204 203 165 164 154 153 147 148 152 149 150 151 142 143 144 146 145 158 157 159 156 155 160 161 113 112 114 111 110 109 108 172 170 171 175 174 173 107 542 541 544 545 546 547 543 103 102 551 550 559 558 557 556 555 554 553 552 101 100 99 98 97 94 95 96 104 105 106 117 115 116 126 127 128 129 130 131 132 133 134 135 136 141 140 139 137 138 125 124 69 70 68 67 66 65 72 71 123 122 121 120 118 119 73 74 75 64 76 77 89 90 93 92 91 85 86 87 88 78 62 63 61 79 80 81 60 59 58 57 82 83 84 51 50 52 54 53 56 55 49 48 47 46 45 44 43 42 39 41 40 38 37 36 35 34 33 32 30 31 22 23 12 13 14 15 16 11 10 9 18 17 8 7 6 5 4 3 2 1 0 573 572 571 460 459 458 457 456 455 454 439 452 453 440 441 450 449 448 447 446 442 443 444 445 431 432 433 434 435 436 438 437 430 429 428 427 426 425 424 423 422 421 420 419 417 418 410 411 412 356 402 401 360 359 358 357 355 354 353 413 416 415 414 352 351 350 349 348 347 362 361 363 364 346 345 344 343 341 340 330 331 332 333 339 338 337 336 335 334 283 284 285 286 287 280 281 282 279 278 277 276 288 289 290 275 274 273 272 271 267 268 269 270 292 291 293 294 295 296 297 298 299 265 266 264 263 262 261 260 259 258 300 257 256 255 253 254 252 251 250 249 248 241 242 243 244 245 247 246 238 239 240 237 511 510 509 506 507 508 302 301 303 304 307 305 306 318 317 319 320 321 322 323 324 325 326 327 328 329 342 366 367 365 368 369 370 398 397 399 407 406 400 403 404 405 408 409 384 383 382 386 385 387 388 389 390 381 392 391 393 394 395 396 371 372 373 374 375 376 379 380 378 377 315 314 316 313 312 451 311 310 309 308 505 504 503 502 498 501 500 499 461 462 463 464 465 466 467 468 570 569 568 19 20 21 24 25 26 27 28 29 567 566 565 564 563 562 561 560 549 548 478 477 479 480 476 475 482 481 483 485 484 536 535 487 486 534 488 533 532 531 530 489 490 491 492 493 473 474 472 471 469 470 496 497 495 494 524 525 526 523 522 521 520 518 519 517 516 515 514 513